letting n_nurses=25
letting n_days=7
letting n_shift_types=4
letting max_covers=6
letting t_covers=35
letting covers=[0,0,0,0,1,0,0,0,4,2,4,0,6,2,5,0,5,4,2,0,0,0,0,0,0,0,0,0]
letting prefes=[1,1,1,2,3,1,3,2,1,1,3,2,1,1,3,2,3,1,3,2,3,1,3,2,3,1,3,2,4,1,1,2,3,2,3,2,3,2,3,2,3,2,3,2,3,2,3,2,3,2,3,2,3,2,3,2,4,1,1,2,3,2,3,1,3,2,3,2,3,2,3,2,3,1,3,1,3,1,3,1,3,1,3,1,4,4,4,2,1,1,1,2,3,1,3,2,3,1,3,2,3,1,3,2,3,1,3,2,3,1,3,2,4,1,1,2,3,2,1,1,3,1,3,1,3,1,3,1,3,1,3,1,3,1,3,1,3,1,3,1,4,1,1,2,3,2,3,2,1,1,3,2,1,1,3,2,3,1,3,2,3,1,3,2,3,1,3,2,4,1,1,2,3,2,3,2,3,1,3,2,3,1,3,2,3,1,3,2,3,1,3,2,3,1,3,2,4,1,1,2,3,2,3,2,3,1,3,1,3,1,3,1,3,1,3,2,3,1,3,2,3,1,3,2,4,1,4,1,3,2,3,2,3,2,3,2,3,2,3,2,3,1,3,2,3,1,3,2,3,1,3,2,4,1,1,2,1,2,3,2,1,1,1,2,1,1,1,2,1,2,1,2,1,2,1,2,1,2,1,2,4,4,4,2,3,2,3,1,3,2,3,2,3,2,3,2,3,1,3,1,3,1,3,1,3,1,3,1,4,4,1,2,3,2,3,1,3,1,3,2,3,1,3,2,3,1,3,1,3,1,3,1,3,1,3,1,4,4,1,2,1,2,1,2,3,1,1,2,3,1,1,2,3,2,3,2,3,2,3,2,3,2,3,2,4,1,1,1,3,1,1,2,3,1,1,2,3,1,1,2,1,2,1,2,1,2,1,2,1,2,1,2,4,1,4,2,3,2,3,2,3,1,3,2,3,1,3,2,3,1,3,2,3,1,3,2,3,1,3,2,4,1,4,1,3,2,3,2,3,1,3,1,3,1,3,1,1,1,1,2,1,1,1,2,1,1,1,2,1,1,1,2,1,2,3,2,3,1,1,2,3,1,1,2,3,1,3,2,3,1,3,2,3,1,3,2,4,1,1,2,3,2,1,2,3,1,3,2,3,1,3,2,3,1,3,2,3,1,3,2,3,1,3,2,1,1,1,1,1,1,3,2,3,1,3,1,3,1,3,1,3,1,3,2,3,1,3,2,3,1,3,2,1,1,1,2,3,2,3,2,1,1,1,1,1,1,1,1,1,2,1,2,1,2,1,2,1,2,1,2,1,1,1,2,3,1,3,2,3,2,3,2,3,2,3,2,3,1,3,2,3,1,3,2,3,1,3,2,4,4,1,2,3,2,3,1,3,1,3,2,3,1,3,2,1,1,1,1,1,1,1,1,1,1,1,1,4,1,1,2,3,2,3,2,3,1,3,2,3,1,3,2,3,1,3,2,3,1,3,2,3,1,3,2,4,1,1,1,3,2,3,2,1,1,3,2,1,1,3,2,3,1,3,2,3,1,3,2,3,1,3,2,4,1,1,2,3,2,3,2,3,1,3,2,3,1,3,2,3,1,3,2,3,1,3,2,3,1,3,2]
letting ub =  225
